p tw 73 13141 2 
1 4 
1 6 
1 8 
1 10 
1 12 
1 14 
1 16 
1 18 
1 20 
1 22 
1 24 
1 26 
1 28 
1 30 
1 32 
1 34 
1 36 
1 38 
1 40 
1 42 
1 44 
1 46 
1 48 
1 50 
1 52 
1 54 
1 56 
1 58 
1 60 
1 62 
1 64 
1 66 
1 68 
1 70 
1 72 
2 3 
2 4 
2 8 
2 10 
2 11 
2 12 
2 14 
2 18 
2 19 
2 21 
2 23 
2 29 
2 30 
2 32 
2 33 
2 35 
2 38 
2 39 
2 44 
2 45 
2 46 
2 49 
2 51 
2 58 
2 59 
2 61 
2 62 
2 63 
2 64 
2 66 
2 67 
2 68 
2 69 
2 71 
2 72 
3 6 
3 7 
3 8 
3 10 
3 14 
3 16 
3 17 
3 18 
3 21 
3 23 
3 25 
3 26 
3 27 
3 28 
3 29 
3 32 
3 35 
3 37 
3 38 
3 41 
3 42 
3 43 
3 44 
3 48 
3 49 
3 51 
3 53 
3 54 
3 55 
3 56 
3 57 
3 58 
3 61 
3 66 
3 71 
4 5 
4 6 
4 10 
4 12 
4 13 
4 14 
4 16 
4 20 
4 21 
4 23 
4 25 
4 31 
4 32 
4 34 
4 35 
4 37 
4 40 
4 41 
4 46 
4 47 
4 48 
4 51 
4 53 
4 60 
4 61 
4 63 
4 64 
4 65 
4 66 
4 68 
4 69 
4 70 
4 71 
4 73 
5 8 
5 9 
5 10 
5 12 
5 16 
5 18 
5 19 
5 20 
5 23 
5 25 
5 27 
5 28 
5 29 
5 30 
5 31 
5 34 
5 37 
5 39 
5 40 
5 43 
5 44 
5 45 
5 46 
5 50 
5 51 
5 53 
5 55 
5 56 
5 57 
5 58 
5 59 
5 60 
5 63 
5 68 
5 73 
6 7 
6 8 
6 12 
6 14 
6 15 
6 16 
6 18 
6 22 
6 23 
6 25 
6 27 
6 33 
6 34 
6 36 
6 37 
6 39 
6 42 
6 43 
6 48 
6 49 
6 50 
6 53 
6 55 
6 62 
6 63 
6 65 
6 66 
6 67 
6 68 
6 70 
6 71 
6 72 
6 73 
7 10 
7 11 
7 12 
7 14 
7 18 
7 20 
7 21 
7 22 
7 25 
7 27 
7 29 
7 30 
7 31 
7 32 
7 33 
7 36 
7 39 
7 41 
7 42 
7 45 
7 46 
7 47 
7 48 
7 52 
7 53 
7 55 
7 57 
7 58 
7 59 
7 60 
7 61 
7 62 
7 65 
7 70 
8 9 
8 10 
8 14 
8 16 
8 17 
8 18 
8 20 
8 24 
8 25 
8 27 
8 29 
8 35 
8 36 
8 38 
8 39 
8 41 
8 44 
8 45 
8 50 
8 51 
8 52 
8 55 
8 57 
8 64 
8 65 
8 67 
8 68 
8 69 
8 70 
8 72 
8 73 
9 12 
9 13 
9 14 
9 16 
9 20 
9 22 
9 23 
9 24 
9 27 
9 29 
9 31 
9 32 
9 33 
9 34 
9 35 
9 38 
9 41 
9 43 
9 44 
9 47 
9 48 
9 49 
9 50 
9 54 
9 55 
9 57 
9 59 
9 60 
9 61 
9 62 
9 63 
9 64 
9 67 
9 72 
10 11 
10 12 
10 16 
10 18 
10 19 
10 20 
10 22 
10 26 
10 27 
10 29 
10 31 
10 37 
10 38 
10 40 
10 41 
10 43 
10 46 
10 47 
10 52 
10 53 
10 54 
10 57 
10 59 
10 66 
10 67 
10 69 
10 70 
10 71 
10 72 
11 14 
11 15 
11 16 
11 18 
11 22 
11 24 
11 25 
11 26 
11 29 
11 31 
11 33 
11 34 
11 35 
11 36 
11 37 
11 40 
11 43 
11 45 
11 46 
11 49 
11 50 
11 51 
11 52 
11 56 
11 57 
11 59 
11 61 
11 62 
11 63 
11 64 
11 65 
11 66 
11 69 
12 13 
12 14 
12 18 
12 20 
12 21 
12 22 
12 24 
12 28 
12 29 
12 31 
12 33 
12 39 
12 40 
12 42 
12 43 
12 45 
12 48 
12 49 
12 54 
12 55 
12 56 
12 59 
12 61 
12 68 
12 69 
12 71 
12 72 
12 73 
13 16 
13 17 
13 18 
13 20 
13 24 
13 26 
13 27 
13 28 
13 31 
13 33 
13 35 
13 36 
13 37 
13 38 
13 39 
13 42 
13 45 
13 47 
13 48 
13 51 
13 52 
13 53 
13 54 
13 58 
13 59 
13 61 
13 63 
13 64 
13 65 
13 66 
13 67 
13 68 
13 71 
14 15 
14 16 
14 20 
14 22 
14 23 
14 24 
14 26 
14 30 
14 31 
14 33 
14 35 
14 41 
14 42 
14 44 
14 45 
14 47 
14 50 
14 51 
14 56 
14 57 
14 58 
14 61 
14 63 
14 70 
14 71 
14 73 
15 18 
15 19 
15 20 
15 22 
15 26 
15 28 
15 29 
15 30 
15 33 
15 35 
15 37 
15 38 
15 39 
15 40 
15 41 
15 44 
15 47 
15 49 
15 50 
15 53 
15 54 
15 55 
15 56 
15 60 
15 61 
15 63 
15 65 
15 66 
15 67 
15 68 
15 69 
15 70 
15 73 
16 17 
16 18 
16 22 
16 24 
16 25 
16 26 
16 28 
16 32 
16 33 
16 35 
16 37 
16 43 
16 44 
16 46 
16 47 
16 49 
16 52 
16 53 
16 58 
16 59 
16 60 
16 63 
16 65 
16 72 
16 73 
17 20 
17 21 
17 22 
17 24 
17 28 
17 30 
17 31 
17 32 
17 35 
17 37 
17 39 
17 40 
17 41 
17 42 
17 43 
17 46 
17 49 
17 51 
17 52 
17 55 
17 56 
17 57 
17 58 
17 62 
17 63 
17 65 
17 67 
17 68 
17 69 
17 70 
17 71 
17 72 
18 19 
18 20 
18 24 
18 26 
18 27 
18 28 
18 30 
18 34 
18 35 
18 37 
18 39 
18 45 
18 46 
18 48 
18 49 
18 51 
18 54 
18 55 
18 60 
18 61 
18 62 
18 65 
18 67 
19 22 
19 23 
19 24 
19 26 
19 30 
19 32 
19 33 
19 34 
19 37 
19 39 
19 41 
19 42 
19 43 
19 44 
19 45 
19 48 
19 51 
19 53 
19 54 
19 57 
19 58 
19 59 
19 60 
19 64 
19 65 
19 67 
19 69 
19 70 
19 71 
19 72 
19 73 
20 21 
20 22 
20 26 
20 28 
20 29 
20 30 
20 32 
20 36 
20 37 
20 39 
20 41 
20 47 
20 48 
20 50 
20 51 
20 53 
20 56 
20 57 
20 62 
20 63 
20 64 
20 67 
20 69 
21 24 
21 25 
21 26 
21 28 
21 32 
21 34 
21 35 
21 36 
21 39 
21 41 
21 43 
21 44 
21 45 
21 46 
21 47 
21 50 
21 53 
21 55 
21 56 
21 59 
21 60 
21 61 
21 62 
21 66 
21 67 
21 69 
21 71 
21 72 
21 73 
22 23 
22 24 
22 28 
22 30 
22 31 
22 32 
22 34 
22 38 
22 39 
22 41 
22 43 
22 49 
22 50 
22 52 
22 53 
22 55 
22 58 
22 59 
22 64 
22 65 
22 66 
22 69 
22 71 
23 26 
23 27 
23 28 
23 30 
23 34 
23 36 
23 37 
23 38 
23 41 
23 43 
23 45 
23 46 
23 47 
23 48 
23 49 
23 52 
23 55 
23 57 
23 58 
23 61 
23 62 
23 63 
23 64 
23 68 
23 69 
23 71 
23 73 
24 25 
24 26 
24 30 
24 32 
24 33 
24 34 
24 36 
24 40 
24 41 
24 43 
24 45 
24 51 
24 52 
24 54 
24 55 
24 57 
24 60 
24 61 
24 66 
24 67 
24 68 
24 71 
24 73 
25 28 
25 29 
25 30 
25 32 
25 36 
25 38 
25 39 
25 40 
25 43 
25 45 
25 47 
25 48 
25 49 
25 50 
25 51 
25 54 
25 57 
25 59 
25 60 
25 63 
25 64 
25 65 
25 66 
25 70 
25 71 
25 73 
26 27 
26 28 
26 32 
26 34 
26 35 
26 36 
26 38 
26 42 
26 43 
26 45 
26 47 
26 53 
26 54 
26 56 
26 57 
26 59 
26 62 
26 63 
26 68 
26 69 
26 70 
26 73 
27 30 
27 31 
27 32 
27 34 
27 38 
27 40 
27 41 
27 42 
27 45 
27 47 
27 49 
27 50 
27 51 
27 52 
27 53 
27 56 
27 59 
27 61 
27 62 
27 65 
27 66 
27 67 
27 68 
27 72 
27 73 
28 29 
28 30 
28 34 
28 36 
28 37 
28 38 
28 40 
28 44 
28 45 
28 47 
28 49 
28 55 
28 56 
28 58 
28 59 
28 61 
28 64 
28 65 
28 70 
28 71 
28 72 
29 32 
29 33 
29 34 
29 36 
29 40 
29 42 
29 43 
29 44 
29 47 
29 49 
29 51 
29 52 
29 53 
29 54 
29 55 
29 58 
29 61 
29 63 
29 64 
29 67 
29 68 
29 69 
29 70 
30 31 
30 32 
30 36 
30 38 
30 39 
30 40 
30 42 
30 46 
30 47 
30 49 
30 51 
30 57 
30 58 
30 60 
30 61 
30 63 
30 66 
30 67 
30 72 
30 73 
31 34 
31 35 
31 36 
31 38 
31 42 
31 44 
31 45 
31 46 
31 49 
31 51 
31 53 
31 54 
31 55 
31 56 
31 57 
31 60 
31 63 
31 65 
31 66 
31 69 
31 70 
31 71 
31 72 
32 33 
32 34 
32 38 
32 40 
32 41 
32 42 
32 44 
32 48 
32 49 
32 51 
32 53 
32 59 
32 60 
32 62 
32 63 
32 65 
32 68 
32 69 
33 36 
33 37 
33 38 
33 40 
33 44 
33 46 
33 47 
33 48 
33 51 
33 53 
33 55 
33 56 
33 57 
33 58 
33 59 
33 62 
33 65 
33 67 
33 68 
33 71 
33 72 
33 73 
34 35 
34 36 
34 40 
34 42 
34 43 
34 44 
34 46 
34 50 
34 51 
34 53 
34 55 
34 61 
34 62 
34 64 
34 65 
34 67 
34 70 
34 71 
35 38 
35 39 
35 40 
35 42 
35 46 
35 48 
35 49 
35 50 
35 53 
35 55 
35 57 
35 58 
35 59 
35 60 
35 61 
35 64 
35 67 
35 69 
35 70 
35 73 
36 37 
36 38 
36 42 
36 44 
36 45 
36 46 
36 48 
36 52 
36 53 
36 55 
36 57 
36 63 
36 64 
36 66 
36 67 
36 69 
36 72 
36 73 
37 40 
37 41 
37 42 
37 44 
37 48 
37 50 
37 51 
37 52 
37 55 
37 57 
37 59 
37 60 
37 61 
37 62 
37 63 
37 66 
37 69 
37 71 
37 72 
38 39 
38 40 
38 44 
38 46 
38 47 
38 48 
38 50 
38 54 
38 55 
38 57 
38 59 
38 65 
38 66 
38 68 
38 69 
38 71 
39 42 
39 43 
39 44 
39 46 
39 50 
39 52 
39 53 
39 54 
39 57 
39 59 
39 61 
39 62 
39 63 
39 64 
39 65 
39 68 
39 71 
39 73 
40 41 
40 42 
40 46 
40 48 
40 49 
40 50 
40 52 
40 56 
40 57 
40 59 
40 61 
40 67 
40 68 
40 70 
40 71 
40 73 
41 44 
41 45 
41 46 
41 48 
41 52 
41 54 
41 55 
41 56 
41 59 
41 61 
41 63 
41 64 
41 65 
41 66 
41 67 
41 70 
41 73 
42 43 
42 44 
42 48 
42 50 
42 51 
42 52 
42 54 
42 58 
42 59 
42 61 
42 63 
42 69 
42 70 
42 72 
42 73 
43 46 
43 47 
43 48 
43 50 
43 54 
43 56 
43 57 
43 58 
43 61 
43 63 
43 65 
43 66 
43 67 
43 68 
43 69 
43 72 
44 45 
44 46 
44 50 
44 52 
44 53 
44 54 
44 56 
44 60 
44 61 
44 63 
44 65 
44 71 
44 72 
45 48 
45 49 
45 50 
45 52 
45 56 
45 58 
45 59 
45 60 
45 63 
45 65 
45 67 
45 68 
45 69 
45 70 
45 71 
46 47 
46 48 
46 52 
46 54 
46 55 
46 56 
46 58 
46 62 
46 63 
46 65 
46 67 
46 73 
47 50 
47 51 
47 52 
47 54 
47 58 
47 60 
47 61 
47 62 
47 65 
47 67 
47 69 
47 70 
47 71 
47 72 
47 73 
48 49 
48 50 
48 54 
48 56 
48 57 
48 58 
48 60 
48 64 
48 65 
48 67 
48 69 
49 52 
49 53 
49 54 
49 56 
49 60 
49 62 
49 63 
49 64 
49 67 
49 69 
49 71 
49 72 
49 73 
50 51 
50 52 
50 56 
50 58 
50 59 
50 60 
50 62 
50 66 
50 67 
50 69 
50 71 
51 54 
51 55 
51 56 
51 58 
51 62 
51 64 
51 65 
51 66 
51 69 
51 71 
51 73 
52 53 
52 54 
52 58 
52 60 
52 61 
52 62 
52 64 
52 68 
52 69 
52 71 
52 73 
53 56 
53 57 
53 58 
53 60 
53 64 
53 66 
53 67 
53 68 
53 71 
53 73 
54 55 
54 56 
54 60 
54 62 
54 63 
54 64 
54 66 
54 70 
54 71 
54 73 
55 58 
55 59 
55 60 
55 62 
55 66 
55 68 
55 69 
55 70 
55 73 
56 57 
56 58 
56 62 
56 64 
56 65 
56 66 
56 68 
56 72 
56 73 
57 60 
57 61 
57 62 
57 64 
57 68 
57 70 
57 71 
57 72 
58 59 
58 60 
58 64 
58 66 
58 67 
58 68 
58 70 
59 62 
59 63 
59 64 
59 66 
59 70 
59 72 
59 73 
60 61 
60 62 
60 66 
60 68 
60 69 
60 70 
60 72 
61 64 
61 65 
61 66 
61 68 
61 72 
62 63 
62 64 
62 68 
62 70 
62 71 
62 72 
63 66 
63 67 
63 68 
63 70 
64 65 
64 66 
64 70 
64 72 
64 73 
65 68 
65 69 
65 70 
65 72 
66 67 
66 68 
66 72 
67 70 
67 71 
67 72 
68 69 
68 70 
69 72 
69 73 
70 71 
70 72 
72 73 
